Route #1: 67 32 6 58 10 24 18 28 36 42
Route #2: 40 55 3 11 23 39 25
Route #3: 19 53 38 50 63
Route #4: 65 43 66 13 46 7
Route #5: 27 5 62 14 54 16 12 45
Route #6: 31 64 35 47 60 4 15
Route #7: 21 30 59 44 34 48 9 26 1 33
Route #8: 56 20 52 57 49 17
Route #9: 61 51 22 2 8 37 41 29
Cost 1274
Time 0.678877
Tempo = 0.7044172999958391